
(set-logic ALL) 

(declare-datatype MyList ((Nil) (Cons (head Real) (tail MyList)) )) 
(declare-fun l0 () MyList) 
(declare-fun l1 () MyList) 
(declare-fun l2 () MyList) 
(declare-fun l3 () MyList) 
(declare-fun i0 () Real) 
(declare-fun i1 () Real) 
(assert (or (= l0 Nil) (= l3 l2)) )
(assert (is-Nil Nil) )
(assert (= l2 Nil) )
(assert (is-Nil Nil) )
(assert (and (is-Cons l3) (is-Nil Nil) (= l0 Nil)) )
(assert (= l0 Nil) )
(assert (or (is-Nil Nil) (is-Cons Nil) (is-Cons l1) (= l0 Nil)) )
(assert (is-Nil Nil) )
(check-sat)
